\ENCODING=ISO-8859-1
\Problem name: 

Minimize
 obj: 65.5762279634579 x1_1 + 108.82939749027 x1_2 + 91.4452053345285 x1_3
      + 118.225704574026 x2_1 + 188.328362278045 x2_2 + 119.012963822402 x2_3
      + 25.9422169344077 x3_1 + 29.9511026577258 x3_2 + 40.853149753151 x3_3
      + 105.739693358015 x4_1 + 135.263967031434 x4_2 + 101.295903637422 x4_3
Subject To
 c1:  x1_1 + x1_2 + x1_3  = 1
 c2:  x2_1 + x2_2 + x2_3  = 1
 c3:  x3_1 + x3_2 + x3_3  = 1
 c4:  x4_1 + x4_2 + x4_3  = 1
 c5:  y1 + y2 + y3  = 1
 c6:  - x1_1 + y1 >= 0
 c7:  - x1_2 + y2 >= 0
 c8:  - x1_3 + y3 >= 0
 c9:  - x2_1 + y1 >= 0
 c10: - x2_2 + y2 >= 0
 c11: - x2_3 + y3 >= 0
 c12: - x3_1 + y1 >= 0
 c13: - x3_2 + y2 >= 0
 c14: - x3_3 + y3 >= 0
 c15: - x4_1 + y1 >= 0
 c16: - x4_2 + y2 >= 0
 c17: - x4_3 + y3 >= 0
Bounds
 0 <= x1_1 <= 1
 0 <= x1_2 <= 1
 0 <= x1_3 <= 1
 0 <= x2_1 <= 1
 0 <= x2_2 <= 1
 0 <= x2_3 <= 1
 0 <= x3_1 <= 1
 0 <= x3_2 <= 1
 0 <= x3_3 <= 1
 0 <= x4_1 <= 1
 0 <= x4_2 <= 1
 0 <= x4_3 <= 1
 0 <= y1 <= 1
 0 <= y2 <= 1
 0 <= y3 <= 1
Binaries
 x1_1  x1_2  x1_3  x2_1  x2_2  x2_3  x3_1  x3_2  x3_3  x4_1  x4_2  x4_3  y1 
 y2  y3 
End
